(set-logic ALL)
(declare-fun B () String)
(declare-fun G () String)
(assert (= (str.++  "baaaaaaabaaa" B "baabbbbbbbaababbaabbbaaabbbbb")  (str.++  "baaaaaaabaaaabbbbbbabbbabbabbbaabbaaaababbabbbabbaa" G "baabbbbbbbaababbaabbbaaabbbbb") ))
(check-sat)
(get-model)
